 TITLE: Physical Attractiveness predicting initiation hopes (Males Only)

  DATA:
  FILE IS 
speed.dating.mplus.10.dat;

  VARIABLE: NAMES ARE Part_num MatchID_clean Follow_clean 
  IRLikedPartner IRSayYes IRSexAttract 
    IRThinkCareer IRThinkAmbitious IRThinkPhys 
    IRThinkHot IRThinkFun IRThinkResponsive 
    IRThinkDependable IRThinkFriendly IRCommon 
    IRPersonality IRConnection yessing mutmatch PMexcited 
    PMSelfinit PMMatchinit FUEager FUInitiate FUEnjoy 
    FUSexDesire FUSoulMate FURomInterest FUOnlyWith 
    FUMind FUOneNight FUCasual FUSerious FUCommitted 
    FUExtentPhys FUExtentCareer FUExtentAmbitious 
    FUExtentHot FUExtentFun FUExtentRespons 
    FUExtentFriendly DemAge DemEthn FUPhysContact 
    FUInitiatePhys FUEnjoyContact FUContactBad 
    IRpatt IRepro IRpers IRrdes IRchem FUpasn FUpatt FUepro 
    FUpers FUStatus sex_M1_F2;

    CLUSTER =Part_num;
    WITHIN = IRpatt;

USEVARIABLES ARE Part_num IRpatt PMMatchinit;

USEOBS Follow_clean EQ 1 AND sex_M1_F2 EQ -.5;

MISSING ARE ALL (-999);

 ANALYSIS:
TYPE=TWOLEVEL;
ESTIMATOR = MLR;

MODEL:
%WITHIN%
PMMatchinit ON IRpatt;

OUTPUT: SAMPSTAT STDYX;


