 TITLE: FU Romantic Descriptives

   DATA:
  FILE IS 
speed.dating.mplus.10.dat;

  VARIABLE: NAMES ARE Part_num MatchID_clean Follow_clean 
  IRLikedPartner IRSayYes IRSexAttract 
    IRThinkCareer IRThinkAmbitious IRThinkPhys 
    IRThinkHot IRThinkFun IRThinkResponsive 
    IRThinkDependable IRThinkFriendly IRCommon 
    IRPersonality IRConnection yessing mutmatch PMexcited 
    PMSelfinit PMMatchinit FUEager FUInitiate FUEnjoy 
    FUSexDesire FUSoulMate FURomInterest FUOnlyWith 
    FUMind FUOneNight FUCasual FUSerious FUCommitted 
    FUExtentPhys FUExtentCareer FUExtentAmbitious 
    FUExtentHot FUExtentFun FUExtentRespons 
    FUExtentFriendly DemAge DemEthn FUPhysContact 
    FUInitiatePhys FUEnjoyContact FUContactBad 
    IRpatt IRepro IRpers IRrdes IRchem FUpasn FUpatt FUepro 
    FUpers FUStatus sex_M1_F2;

USEVARIABLES ARE Part_num MatchID_clean 
FUpasn FUOneNight FUCasual FUSerious FUCommitted;

CLUSTER = Part_num MatchID_clean;

!Not sure if I should include only mutual matches ...
USEOBS FUStatus LT 5 AND FUStatus NE 0;

MISSING ARE ALL (-999);

 ANALYSIS:
TYPE=THREELEVEL BASIC;
ITERATIONS = 100000;

OUTPUT: SAMPSTAT STDYX;


