 TITLE: Physical Attractivness predicting Chemistry w. Interaction

  DATA:
  FILE IS 
speed.dating.mplus.10.dat;

  VARIABLE: NAMES ARE Part_num MatchID_clean Follow_clean 
  IRLikedPartner IRSayYes IRSexAttract 
    IRThinkCareer IRThinkAmbitious IRThinkPhys 
    IRThinkHot IRThinkFun IRThinkResponsive 
    IRThinkDependable IRThinkFriendly IRCommon 
    IRPersonality IRConnection yessing mutmatch PMexcited 
    PMSelfinit PMMatchinit FUEager FUInitiate FUEnjoy 
    FUSexDesire FUSoulMate FURomInterest FUOnlyWith 
    FUMind FUOneNight FUCasual FUSerious FUCommitted 
    FUExtentPhys FUExtentCareer FUExtentAmbitious 
    FUExtentHot FUExtentFun FUExtentRespons 
    FUExtentFriendly DemAge DemEthn FUPhysContact 
    FUInitiatePhys FUEnjoyContact FUContactBad 
    IRpatt IRepro IRpers IRrdes IRchem FUpasn FUpatt FUepro 
    FUpers FUStatus sex_M1_F2;

    CLUSTER =Part_num;
    WITHIN = IRpatt sexint;
    BETWEEN = sex_M1_F2;

USEVARIABLES ARE Part_num IRpatt IRchem sex_M1_F2 sexint;

 USEOBS Follow_clean EQ 1;

CLUSTER = Part_num;
MISSING ARE ALL (-999);

DEFINE:

sexint = sex_M1_F2 * IRpatt;

 ANALYSIS:
TYPE=TWOLEVEL;
ESTIMATOR = MLR;

MODEL:
%WITHIN%
IRchem ON IRpatt sexint;

%BETWEEN%
IRchem ON sex_M1_F2;


OUTPUT: SAMPSTAT STDYX;


