 TITLE: Personable predicting FU Desire for Serious Relationship w. Interaction

  DATA:
  FILE IS 
speed.dating.mplus.10.dat;

  VARIABLE: NAMES ARE Part_num MatchID_clean Follow_clean 
  IRLikedPartner IRSayYes IRSexAttract 
    IRThinkCareer IRThinkAmbitious IRThinkPhys 
    IRThinkHot IRThinkFun IRThinkResponsive 
    IRThinkDependable IRThinkFriendly IRCommon 
    IRPersonality IRConnection yessing mutmatch PMexcited 
    PMSelfinit PMMatchinit FUEager FUInitiate FUEnjoy 
    FUSexDesire FUSoulMate FURomInterest FUOnlyWith 
    FUMind FUOneNight FUCasual FUSerious FUCommitted 
    FUExtentPhys FUExtentCareer FUExtentAmbitious 
    FUExtentHot FUExtentFun FUExtentRespons 
    FUExtentFriendly DemAge DemEthn FUPhysContact 
    FUInitiatePhys FUEnjoyContact FUContactBad 
    IRpatt IRepro IRpers IRrdes IRchem FUpasn FUpatt FUepro 
    FUpers FUStatus sex_M1_F2;

    CLUSTER =Part_num MatchID_clean;
    WITHIN = FUpers sexint;
    BETWEEN = (Part_num) sex_M1_F2;

USEVARIABLES ARE Part_num MatchID_clean FUpers FUSerious sex_M1_F2 sexint;

!When FUStatus = 0, all FU variables = 0. Removed to avoid bias. Presumed data-entry error
USEOBS FUStatus NE 0;

MISSING ARE ALL (-999);

DEFINE:

sexint = sex_M1_F2 * FUpers;

 ANALYSIS:
TYPE=THREELEVEL;
ESTIMATOR = MLR;

MODEL:
%WITHIN%
FUSerious ON FUpers sexint;

%BETWEEN Part_num%
FUSerious ON sex_M1_F2;


OUTPUT: SAMPSTAT STDYX;


