 TITLE: Personable predicting FU Date Initiation (Female Only)

  DATA:
  FILE IS 
speed.dating.mplus.10.dat;

  VARIABLE: NAMES ARE Part_num MatchID_clean Follow_clean 
  IRLikedPartner IRSayYes IRSexAttract 
    IRThinkCareer IRThinkAmbitious IRThinkPhys 
    IRThinkHot IRThinkFun IRThinkResponsive 
    IRThinkDependable IRThinkFriendly IRCommon 
    IRPersonality IRConnection yessing mutmatch PMexcited 
    PMSelfinit PMMatchinit FUEager FUInitiate FUEnjoy 
    FUSexDesire FUSoulMate FURomInterest FUOnlyWith 
    FUMind FUOneNight FUCasual FUSerious FUCommitted 
    FUExtentPhys FUExtentCareer FUExtentAmbitious 
    FUExtentHot FUExtentFun FUExtentRespons 
    FUExtentFriendly DemAge DemEthn FUPhysContact 
    FUInitiatePhys FUEnjoyContact FUContactBad 
    IRpatt IRepro IRpers IRrdes IRchem FUpasn FUpatt FUepro 
    FUpers FUStatus sex_M1_F2;

    CLUSTER =Part_num MatchID_clean;
    WITHIN = FUpers;

USEVARIABLES ARE Part_num MatchID_clean FUpers FUInitiate;

!When FUStatus = 0, all FU variables = 0. Removed to avoid bias. Presumed data-entry error
USEOBS FUStatus NE 0 AND sex_M1_F2 EQ .5;

MISSING ARE ALL (-999);

 ANALYSIS:
TYPE=THREELEVEL;
ESTIMATOR = MLR;

MODEL:
%WITHIN%
FUInitiate ON FUpers;

OUTPUT: SAMPSTAT STDYX;


